Academic license - for non-commercial use only
Gurobi Optimizer version 9.0.3 build v9.0.3rc0 (mac64)
Optimize a model with 312174 rows, 301200 columns and 1752950 nonzeros
Model fingerprint: 0xc0fd4381
Variable types: 0 continuous, 301200 integer (301200 binary)
Coefficient statistics:
  Matrix range     [1e+00, 1e+00]
  Objective range  [1e+01, 5e+04]
  Bounds range     [1e+00, 1e+00]
  RHS range        [1e+00, 5e+02]
Presolve removed 5050 rows and 50 columns (presolve time = 5s) ...
Presolve added 0 rows and 4950 columns
Presolve removed 50 rows and 0 columns
Presolve time: 6.46s
Presolved: 312124 rows, 306150 columns, 1267850 nonzeros
Variable types: 0 continuous, 306150 integer (306150 binary)
Found heuristic solution: objective 524173.00000

Concurrent LP optimizer: dual simplex and barrier
Showing barrier log only...

Root barrier log...

Ordering time: 0.09s

Barrier statistics:
 Dense cols : 600
 AA' NZ     : 9.758e+05
 Factor NZ  : 6.535e+06 (roughly 300 MBytes of memory)
 Factor Ops : 3.028e+09 (less than 1 second per iteration)
 Threads    : 3

                  Objective                Residual
Iter       Primal          Dual         Primal    Dual     Compl     Time
   0   3.05780597e+08 -4.66373929e+08  4.59e+02 2.93e+01  1.62e+04    11s
   1   1.33943671e+06 -4.70392698e+08  1.56e+00 2.29e+03  5.59e+02    12s
   2   7.56538580e+05 -1.88295917e+08  4.03e-01 8.95e+02  2.12e+02    12s
   3   6.65004928e+05 -8.36761035e+07  2.19e-01 3.86e+02  9.35e+01    12s
   4   5.76119539e+05 -2.28591240e+07  3.41e-02 1.03e+02  2.56e+01    13s
   5   5.41706426e+05 -2.09515751e+06  6.40e-03 1.08e+01  2.87e+00    13s
   6   5.10286521e+05 -8.52303303e+05  4.08e-03 5.34e+00  1.48e+00    14s
   7   4.92079670e+05 -1.19437033e+05  3.28e-03 2.16e+00  6.65e-01    14s
   8   4.72253200e+05  2.00087947e+05  2.58e-03 6.90e-01  2.95e-01    14s
   9   4.62332058e+05  3.01753388e+05  2.27e-03 3.02e-01  1.74e-01    15s
  10   4.49357973e+05  3.23986421e+05  1.87e-03 2.18e-01  1.36e-01    15s
  11   4.45115761e+05  3.37415747e+05  1.74e-03 1.68e-01  1.17e-01    16s
  12   4.36105618e+05  3.53398725e+05  1.48e-03 1.09e-01  8.95e-02    16s
  13   4.27481262e+05  3.65193580e+05  1.26e-03 6.78e-02  6.73e-02    17s
  14   4.17439772e+05  3.70251937e+05  9.92e-04 4.93e-02  5.10e-02    17s
  15   4.11899756e+05  3.74769619e+05  8.39e-04 3.31e-02  4.01e-02    18s
  16   4.05802220e+05  3.77875563e+05  6.69e-04 2.25e-02  3.02e-02    18s
  17   4.01801555e+05  3.79739844e+05  5.48e-04 1.64e-02  2.38e-02    18s
  18   3.98183418e+05  3.80646155e+05  4.41e-04 1.33e-02  1.89e-02    19s
  19   3.95969086e+05  3.81870730e+05  3.75e-04 1.00e-02  1.52e-02    19s
  20   3.94030780e+05  3.82488951e+05  3.12e-04 7.85e-03  1.25e-02    20s
  21   3.92094336e+05  3.82907134e+05  2.51e-04 6.32e-03  9.91e-03    20s
  22   3.91231016e+05  3.83565565e+05  2.23e-04 4.39e-03  8.26e-03    21s
  23   3.90219634e+05  3.83755005e+05  1.89e-04 3.78e-03  6.97e-03    21s
  24   3.89380501e+05  3.83966830e+05  1.62e-04 3.09e-03  5.83e-03    22s
  25   3.88503857e+05  3.84152273e+05  1.33e-04 2.55e-03  4.69e-03    22s
  26   3.87897385e+05  3.84281093e+05  1.11e-04 2.12e-03  3.90e-03    22s
  27   3.87460362e+05  3.84420102e+05  9.55e-05 1.72e-03  3.27e-03    23s
  28   3.86861448e+05  3.84488793e+05  7.36e-05 1.46e-03  2.56e-03    23s
  29   3.86575615e+05  3.84574808e+05  6.40e-05 1.20e-03  2.15e-03    24s
  30   3.86236169e+05  3.84646434e+05  5.11e-05 9.92e-04  1.71e-03    24s
  31   3.85991256e+05  3.84695194e+05  4.25e-05 8.57e-04  1.40e-03    25s
  32   3.85895538e+05  3.84769369e+05  3.87e-05 6.48e-04  1.21e-03    25s
  33   3.85793185e+05  3.84794760e+05  3.44e-05 5.92e-04  1.07e-03    25s
  34   3.85715817e+05  3.84814522e+05  3.11e-05 5.29e-04  9.70e-04    26s
  35   3.85628199e+05  3.84864463e+05  2.76e-05 4.20e-04  8.21e-04    26s
  36   3.85545466e+05  3.84878500e+05  2.42e-05 3.66e-04  7.17e-04    27s
  37   3.85432816e+05  3.84889971e+05  1.98e-05 3.17e-04  5.84e-04    27s
  38   3.85359708e+05  3.84898920e+05  1.67e-05 2.87e-04  4.96e-04    27s
  39   3.85339295e+05  3.84905555e+05  1.59e-05 2.68e-04  4.66e-04    28s
  40   3.85276912e+05  3.84914420e+05  1.31e-05 2.36e-04  3.90e-04    28s
  41   3.85242066e+05  3.84930639e+05  1.16e-05 1.80e-04  3.35e-04    29s
  42   3.85197752e+05  3.84937069e+05  9.71e-06 1.58e-04  2.80e-04    29s
  43   3.85193213e+05  3.84941013e+05  9.51e-06 1.46e-04  2.71e-04    29s
  44   3.85175989e+05  3.84946365e+05  8.75e-06 1.28e-04  2.47e-04    30s
  45   3.85143971e+05  3.84949372e+05  7.34e-06 1.18e-04  2.09e-04    30s
  46   3.85118458e+05  3.84954882e+05  6.16e-06 1.00e-04  1.76e-04    30s
  47   3.85105216e+05  3.84957802e+05  5.59e-06 8.96e-05  1.58e-04    31s
  48   3.85085540e+05  3.84963788e+05  4.69e-06 7.42e-05  1.31e-04    31s
  49   3.85063809e+05  3.84968749e+05  3.72e-06 5.91e-05  1.02e-04    32s
  50   3.85055807e+05  3.84971937e+05  3.32e-06 4.94e-05  9.04e-05    32s
  51   3.85047951e+05  3.84973787e+05  2.93e-06 4.31e-05  8.00e-05    32s
  52   3.85037661e+05  3.84975950e+05  2.47e-06 3.65e-05  6.65e-05    33s
  53   3.85027717e+05  3.84977526e+05  1.98e-06 3.12e-05  5.41e-05    33s
  54   3.85021844e+05  3.84979379e+05  1.72e-06 2.52e-05  4.58e-05    34s
  55   3.85016606e+05  3.84981228e+05  1.47e-06 1.96e-05  3.81e-05    34s
  56   3.85009935e+05  3.84982153e+05  1.15e-06 1.68e-05  2.99e-05    34s
  57   3.85007015e+05  3.84983355e+05  1.01e-06 1.27e-05  2.55e-05    35s
  58   3.85005016e+05  3.84984417e+05  9.06e-07 9.50e-06  2.22e-05    35s
  59   3.85004248e+05  3.84985080e+05  8.68e-07 7.51e-06  2.06e-05    36s
  60   3.85001638e+05  3.84985421e+05  7.41e-07 6.26e-06  1.74e-05    36s
  61   3.84997708e+05  3.84985847e+05  5.34e-07 4.91e-06  1.28e-05    36s
  62   3.84995874e+05  3.84986075e+05  4.45e-07 4.17e-06  1.05e-05    37s
  63   3.84994639e+05  3.84986328e+05  3.85e-07 3.35e-06  8.94e-06    37s
  64   3.84994076e+05  3.84986417e+05  3.56e-07 3.09e-06  8.24e-06    37s
  65   3.84993329e+05  3.84986599e+05  3.19e-07 2.60e-06  7.23e-06    38s
  66   3.84992115e+05  3.84986689e+05  2.55e-07 2.35e-06  5.83e-06    38s
  67   3.84991533e+05  3.84986839e+05  2.22e-07 1.91e-06  5.05e-06    39s
  68   3.84991038e+05  3.84987021e+05  1.94e-07 1.38e-06  4.32e-06    39s
  69   3.84990012e+05  3.84987099e+05  1.39e-07 1.09e-06  3.13e-06    39s
  70   3.84989755e+05  3.84987189e+05  1.25e-07 1.03e-06  2.76e-06    40s
  71   3.84989227e+05  3.84987310e+05  9.54e-08 7.23e-07  2.06e-06    40s
  72   3.84988908e+05  3.84987385e+05  7.79e-08 4.50e-07  1.63e-06    41s
  73   3.84988785e+05  3.84987422e+05  7.06e-08 3.56e-07  1.46e-06    41s
  74   3.84988229e+05  3.84987483e+05  4.03e-08 1.82e-07  8.00e-07    41s
  75   3.84988092e+05  3.84987542e+05  3.21e-08 1.32e-07  5.89e-07    42s
  76   3.84988031e+05  3.84987542e+05  2.84e-08 1.28e-07  5.23e-07    42s
  77   3.84987928e+05  3.84987545e+05  2.21e-08 1.06e-07  4.10e-07    42s
  78   3.84987829e+05  3.84987547e+05  1.60e-08 8.59e-08  3.02e-07    43s
  79   3.84987721e+05  3.84987553e+05  9.46e-09 1.43e-07  1.80e-07    43s
  80   3.84987627e+05  3.84987557e+05  3.81e-09 1.61e-07  7.50e-08    43s
  81   3.84987608e+05  3.84987557e+05  5.03e-09 1.53e-07  5.44e-08    44s
  82   3.84987579e+05  3.84987557e+05  5.16e-09 3.18e-07  2.34e-08    44s
  83   3.84987579e+05  3.84987557e+05  5.15e-09 3.18e-07  2.34e-08    44s
  84   3.84987579e+05  3.84987557e+05  5.27e-09 3.20e-07  2.34e-08    45s
  85   3.84987579e+05  3.84987557e+05  7.82e-09 2.96e-07  2.34e-08    45s

Barrier solved model in 85 iterations and 45.29 seconds
Optimal objective 3.84987579e+05


Root crossover log...

  112152 DPushes remaining with DInf 0.0000000e+00                46s
     246 DPushes remaining with DInf 0.0000000e+00                50s
       0 DPushes remaining with DInf 0.0000000e+00                51s

    2094 PPushes remaining with PInf 0.0000000e+00                51s
       0 PPushes remaining with PInf 0.0000000e+00                51s

  Push phase complete: Pinf 0.0000000e+00, Dinf 4.8925370e-09     51s


Root simplex log...

Iteration    Objective       Primal Inf.    Dual Inf.      Time
   21023    3.8498756e+05   0.000000e+00   0.000000e+00     51s

Solved with barrier

Root relaxation: objective 3.849876e+05, 21023 iterations, 41.54 seconds

    Nodes    |    Current Node    |     Objective Bounds      |     Work
 Expl Unexpl |  Obj  Depth IntInf | Incumbent    BestBd   Gap | It/Node Time

     0     0 384987.560    0 29962 524173.000 384987.560  26.6%     -   55s
H    0     0                    410466.00000 384987.560  6.21%     -   57s
H    0     0                    410238.00000 384987.560  6.16%     -   97s
     0     0 384987.560    0 29962 410238.000 384987.560  6.16%     -  190s
     0     2 384987.560    0 29945 410238.000 384987.560  6.16%     -  240s

Explored 1 nodes (30587 simplex iterations) in 300.13 seconds
Thread count was 8 (of 8 available processors)

Solution count 3: 410238 410466 524173 

Time limit reached
Best objective 4.102380000000e+05, best bound 3.849880000000e+05, gap 6.1550%

User-callback calls 12078, time in user-callback 0.13 sec
Solution written to /Users/mdeboute/Desktop/Etudes/Master/M2/S9/GOPP/Projet/multi-period-flp/solution/instSingle_I50_J500_T12_1_result.txt
